objective value:                 0.000617620818000097
x_1_2                                               1 	(obj:0)
x_2_1                                               1 	(obj:0)
x_3_2                                               1 	(obj:0)
x_4_3                                               1 	(obj:0)
x_5_2                                               1 	(obj:0)
x_6_1                                               1 	(obj:0)
x_7_1                                               1 	(obj:0)
x_8_3                                               1 	(obj:0)
x_9_2                                               1 	(obj:0)
x_10_2                                              1 	(obj:0)
x_11_1                                              1 	(obj:0)
x_12_2                                              1 	(obj:0)
x_13_3                                              1 	(obj:0)
x_14_1                                              1 	(obj:0)
x_15_3                                              1 	(obj:0)
x_16_2                                              1 	(obj:0)
x_17_1                                              1 	(obj:0)
x_18_1                                              1 	(obj:0)
x_19_2                                              1 	(obj:0)
x_20_3                                              1 	(obj:0)
x_21_1                                              1 	(obj:0)
x_22_3                                              1 	(obj:0)
x_23_2                                              1 	(obj:0)
x_24_3                                              1 	(obj:0)
x_25_2                                              1 	(obj:0)
x_26_3                                              1 	(obj:0)
x_27_1                                              1 	(obj:0)
x_28_3                                              1 	(obj:0)
x_29_1                                              1 	(obj:0)
x_30_2                                              1 	(obj:0)
x_31_2                                              1 	(obj:0)
x_32_1                                              1 	(obj:0)
x_33_3                                              1 	(obj:0)
x_34_3                                              1 	(obj:0)
x_35_2                                              1 	(obj:0)
x_36_3                                              1 	(obj:0)
x_37_1                                              1 	(obj:0)
x_38_3                                              1 	(obj:0)
x_39_2                                              1 	(obj:0)
x_40_3                                              1 	(obj:0)
ind_1                                               1 	(obj:0)
abs_1_3                                             1 	(obj:0)
ind_2                                               1 	(obj:0)
abs_2_1                                             1 	(obj:0)
ind_3                                               1 	(obj:0)
abs_3_2                                             1 	(obj:0)
epsI                             0.000617620818000097 	(obj:1)
SCIP Status        : solving was interrupted [user interrupt]
Total Time         :      39.86
  solving          :      39.85
  presolving       :       0.46 (included in solving)
  reading          :       0.01
  copying          :       0.15 (5 #copies) (minimal 0.03, maximal 0.03, average 0.03)
Original Problem   :
  Problem name     : instances/Pot4/Pot4_T_40B_1t.txt.spa
  Variables        : 133 (132 binary, 0 integer, 0 implicit integer, 1 continuous)
  Constraints      : 228 initial, 228 maximal
  Objective sense  : maximize
Presolved Problem  :
  Problem name     : t_instances/Pot4/Pot4_T_40B_1t.txt.spa
  Variables        : 700 (127 binary, 0 integer, 9 implicit integer, 564 continuous)
  Constraints      : 2352 initial, 2425 maximal
Presolvers         :   ExecTime  SetupTime  Calls  FixedVars   AggrVars   ChgTypes  ChgBounds   AddHoles    DelCons    AddCons   ChgSides   ChgCoefs
  boundshift       :       0.00       0.00      0          0          0          0          0          0          0          0          0          0
  components       :       0.01       0.00      1          0          0          0          0          0          0          0          0          0
  convertinttobin  :       0.00       0.00      0          0          0          0          0          0          0          0          0          0
  domcol           :       0.01       0.00      1          0          0          0          0          0          0          0          0          0
  dualagg          :       0.00       0.00      0          0          0          0          0          0          0          0          0          0
  dualinfer        :       0.00       0.00      0          0          0          0          0          0          0          0          0          0
  gateextraction   :       0.00       0.00      3          0          0          0          0          0         57         18          0          0
  implfree         :       0.00       0.00      0          0          0          0          0          0          0          0          0          0
  implics          :       0.00       0.00      4          0          0          0          0          0          0          0          0          0
  inttobinary      :       0.00       0.00      0          0          0          0          0          0          0          0          0          0
  redvub           :       0.00       0.00      0          0          0          0          0          0          0          0          0          0
  stuffing         :       0.01       0.00      1          0          0          0          0          0          0          0          0          0
  trivial          :       0.00       0.00      7          0          0          0          0          0          0          0          0          0
  tworowbnd        :       0.00       0.00      0          0          0          0          0          0          0          0          0          0
  dualfix          :       0.00       0.00      7          3          0          0          0          0          0          0          0          0
  genvbounds       :       0.00       0.00      0          0          0          0          0          0          0          0          0          0
  probing          :       0.27       0.00      1          0          0          0          0          0          0          0          0          0
  pseudoobj        :       0.00       0.00      0          0          0          0          0          0          0          0          0          0
  varbound         :       0.00       0.00      9          0          0          0          0          0         15         15          0          0
  setppc           :       0.02       0.00     12          0          0          0          0          0          0          0          0          0
  and              :       0.00       0.00      4          0          6          0          0          0          6          0          0          0
  linear           :       0.07       0.00      9          1          1          0          2          0          3          0          6          6
  logicor          :       0.00       0.00      7          0          0          0          0          0          0          0          0          0
  bounddisjunction :       0.00       0.00      0          0          0          0          0          0          0          0          0          0
  quadratic        :       0.07       0.00      2          0          0          0          0          0          0       2172          0          0
  root node        :          -          -      -          1          -          -         60          -          -          -          -          -
Constraints        :     Number  MaxNumber  #Separate #Propagate    #EnfoLP    #EnfoPS     #Check   #ResProp    Cutoffs    DomReds       Cuts    Applied      Conss   Children
  integral         :          0          0          0          0       4904          0        404          0          0       2330          0          0          0       7782
  varbound         :       1001       1001         70      36285        768          0        156        960         24      51588          0          0          0          0
  setppc           :        165        165         70      36260        768          0         95        748          8       5800          2          0          0          0
  and              :         12         12        280       7486          0          0         93         31          3        171         25         11          0          0
  linear           :       1136       1136         70      36250        768          0         82        491         35     199474      61658      61384          0          0
  logicor          :         38+       139         70       3713          0          0          0          2          0          0          0          0          0          0
  bounddisjunction :          0+        16          0       4012          0          0          0          1          0         84          0          0          0          0
  countsols        :          0          0          0          0          0          0        244          0          0          0          0          0          0          0
Constraint Timings :  TotalTime  SetupTime   Separate  Propagate     EnfoLP     EnfoPS      Check    ResProp    SB-Prop
  integral         :       3.68       0.00       0.00       0.00       3.68       0.00       0.00       0.00       0.00
  varbound         :       0.90       0.00       0.02       0.71       0.05       0.00       0.03       0.00       0.09
  setppc           :       1.00       0.00       0.00       0.90       0.00       0.00       0.01       0.00       0.09
  and              :       0.00       0.00       0.00       0.00       0.00       0.00       0.00       0.00       0.00
  linear           :       5.52       0.00       0.07       4.74       0.32       0.00       0.05       0.01       0.33
  logicor          :       0.42       0.00       0.40       0.02       0.00       0.00       0.00       0.00       0.00
  bounddisjunction :       0.00       0.00       0.00       0.00       0.00       0.00       0.00       0.00       0.00
  countsols        :       0.00       0.00       0.00       0.00       0.00       0.00       0.00       0.00       0.00
Propagators        : #Propagate   #ResProp    Cutoffs    DomReds
  dualfix          :          2          0          0          0
  genvbounds       :          0          0          0          0
  obbt             :          0          0          0          0
  probing          :          0          0          0          0
  pseudoobj        :      24774          0          0         59
  redcost          :      10001          0          0        136
  rootredcost      :          1          0          0          0
  vbounds          :      40663          0          0          0
Propagator Timings :  TotalTime  SetupTime   Presolve  Propagate    ResProp    SB-Prop
  dualfix          :       0.00       0.00       0.00       0.00       0.00       0.00
  genvbounds       :       0.00       0.00       0.00       0.00       0.00       0.00
  obbt             :       0.00       0.00       0.00       0.00       0.00       0.00
  probing          :       0.27       0.00       0.27       0.00       0.00       0.00
  pseudoobj        :       0.03       0.00       0.00       0.03       0.00       0.00
  redcost          :       0.14       0.00       0.00       0.14       0.00       0.00
  rootredcost      :       0.01       0.00       0.00       0.01       0.00       0.00
  vbounds          :       0.03       0.00       0.00       0.03       0.00       0.00
Conflict Analysis  :       Time      Calls    Success    DomReds  Conflicts   Literals    Reconvs ReconvLits   LP Iters
  propagation      :       0.02         35         35          -        858       84.9         11       80.0          -
  infeasible LP    :       0.08        248          1          -         24       53.7          0        0.0          0
  bound exceed. LP :       0.00          0          0          -          0        0.0          0        0.0          0
  strong branching :       0.00          0          0          -          0        0.0          0        0.0          0
  pseudo solution  :       0.00          0          0          -          0        0.0          0        0.0          -
  applied globally :       0.00          -          -          0         15        9.5          -          -          -
  applied locally  :          -          -          -          0         21       51.1          -          -          -
Separators         :   ExecTime  SetupTime      Calls    Cutoffs    DomReds       Cuts    Applied      Conss
  cut pool         :       0.00                    68          -          -        619          -          -    (maximal pool size: 473)
  cgmip            :       0.00       0.00          0          0          0          0          0          0
  clique           :       0.01       0.00         69          0          0          2          2          0
  closecuts        :       0.00       0.00          0          0          0          0          0          0
  cmir             :       0.08       0.00         10          0          0        120         99          0
  disjunctive      :       0.00       0.00          0          0          0          0          0          0
  eccuts           :       0.00       0.00          0          0          0          0          0          0
  flowcover        :       3.53       0.00         15          0          0        198         23          0
  gomory           :       0.46       0.00         10          0          0         50         33          0
  impliedbounds    :       0.05       0.00         69          0          0        341         91          0
  intobj           :       0.00       0.00          0          0          0          0          0          0
  mcf              :       0.00       0.00          1          0          0          0          0          0
  oddcycle         :       0.00       0.00          0          0          0          0          0          0
  rapidlearning    :       0.00       0.00          0          0          0          0          0          0
  strongcg         :       0.68       0.00         20          0          0         23          7          0
  zerohalf         :       0.00       0.00          0          0          0          0          0          0
Pricers            :   ExecTime  SetupTime      Calls       Vars
  problem variables:       0.00          -          0          0
Branching Rules    :   ExecTime  SetupTime   BranchLP  BranchExt   BranchPS    Cutoffs    DomReds       Cuts      Conss   Children
  allfullstrong    :       0.00       0.00          0          0          0          0          0          0          0          0
  cloud            :       0.00       0.00          0          0          0          0          0          0          0          0
  distribution     :       0.00       0.00          0          0          0          0          0          0          0          0
  fullstrong       :       0.00       0.00          0          0          0          0          0          0          0          0
  inference        :       0.00       0.00          0          0          0          0          0          0          0          0
  leastinf         :       0.00       0.00          0          0          0          0          0          0          0          0
  mostinf          :       0.00       0.00          0          0          0          0          0          0          0          0
  multaggr         :       0.00       0.00          0          0          0          0          0          0          0          0
  nodereopt        :       0.00       0.00          0          0          0          0          0          0          0          0
  pscost           :       0.00       0.00          0          0          0          0          0          0          0          0
  random           :       0.00       0.00          0          0          0          0          0          0          0          0
  relpscost        :       3.67       0.00       4136          0          0          0       2330          0          0       7782
Primal Heuristics  :   ExecTime  SetupTime      Calls      Found       Best
  LP solutions     :       0.00          -          -          0          -
  pseudo solutions :       0.00          -          -          0          -
  strong branching :       0.00          -          -          0          -
  SpaGreedy        :       1.02       0.00        257        100          1
  actconsdiving    :       0.00       0.00          0          0          0
  bound            :       0.00       0.00          0          0          0
  clique           :       0.00       0.00          0          0          0
  coefdiving       :       0.76       0.00         24          0          0
  crossover        :       3.97       0.00          2          0          0
  dins             :       0.00       0.00          0          0          0
  distributiondivin:       1.77       0.00         23          0          0
  dualval          :       0.00       0.00          0          0          0
  feaspump         :       0.03       0.00          1          0          0
  fixandinfer      :       0.00       0.00          0          0          0
  fracdiving       :       0.82       0.00         24          0          0
  guideddiving     :       0.00       0.00          0          0          0
  indicator        :       0.00       0.00          0          0          0
  intdiving        :       0.00       0.00          0          0          0
  intshifting      :       0.02       0.00          9          0          0
  linesearchdiving :       0.68       0.00         23          0          0
  localbranching   :       0.00       0.00          0          0          0
  mutation         :       0.00       0.00          0          0          0
  nlpdiving        :       0.00       0.00          0          0          0
  objpscostdiving  :       0.28       0.00          5          0          0
  octane           :       0.00       0.00          0          0          0
  ofins            :       0.00       0.00          0          0          0
  oneopt           :       0.00       0.00          0          0          0
  proximity        :       0.00       0.00          0          0          0
  pscostdiving     :       0.71       0.00         24          0          0
  randrounding     :       2.68       0.00         76          0          0
  rens             :       0.00       0.00          0          0          0
  reoptsols        :       0.00       0.00          0          0          0
  rins             :       0.00       0.00          0          0          0
  rootsoldiving    :       0.15       0.00         10          0          0
  rounding         :       0.18       0.00        848          0          0
  shiftandpropagate:       0.00       0.00          0          0          0
  shifting         :       0.66       0.00        210          0          0
  simplerounding   :       0.00       0.00          0          0          0
  spaswitch        :       0.01       0.00          1          0          0
  subnlp           :       0.00       0.00          0          0          0
  trivial          :       0.01       0.00          2          0          0
  trivialnegation  :       0.00       0.00          0          0          0
  trysol           :       0.00       0.00          0          0          0
  twoopt           :       0.00       0.00          0          0          0
  undercover       :       0.00       0.00          1          0          0
  vbounds          :       0.00       0.00          0          0          0
  veclendiving     :       0.63       0.00         23          0          0
  zeroobj          :       0.00       0.00          0          0          0
  zirounding       :       0.20       0.00       1000          0          0
  other solutions  :          -          -          -          0          -
Diving Statistics  :      Calls      Nodes   LP Iters Backtracks   MinDepth   MaxDepth   AvgDepth  NLeafSols  MinSolDpt  MaxSolDpt  AvgSolDpt
  actconsdiving    :          0          -          -          -          -          -          -          -          -          -          -
  coefdiving       :         24        628       7065         19         30         53       39.3          -          -          -          -
  distributiondivin:         23        551       8931         20         21         50       35.4          -          -          -          -
  fracdiving       :         24        656       9035         20         19         64       38.8          -          -          -          -
  guideddiving     :          0          -          -          -          -          -          -          -          -          -          -
  linesearchdiving :         23        507       6984         21         32         48       36.2          -          -          -          -
  pscostdiving     :         24        658       7110         18         30         63       38.8          -          -          -          -
  veclendiving     :         23        512       6119         17         33         41       35.7          -          -          -          -
LP                 :       Time      Calls Iterations  Iter/call   Iter/sec  Time-0-It Calls-0-It
  primal LP        :       0.00         10          0       0.00          -       0.00         10
  dual LP          :       5.79       8767     154855      20.30   26745.25       0.21       1140
  lex dual LP      :       0.00          0          0       0.00          -
  barrier LP       :       0.00          0          0       0.00          -       0.00          0
  diving/probing LP:       1.96       1752      52907      30.20   26993.37
  strong branching :       2.15        572      44824      78.36   20848.37
    (at root node) :          -         19       1533      80.68          -
  conflict analysis:       0.00          0          0       0.00          -
B&B Tree           :
  number of runs   :          1
  nodes            :       7003 (3891 internal, 3112 leaves)
  nodes (total)    :       7003 (3891 internal, 3112 leaves)
  nodes left       :        781
  max depth        :         37
  max depth (total):         37
  backtracks       :       1736 (24.8%)
  delayed cutoffs  :          0
  repropagations   :          6 (0 domain reductions, 0 cutoffs)
  avg switch length:       3.67
  switching time   :       2.84
Root Node          :
  First LP value   : +2.00000000000000e+00
  First LP Iters   :        444 (44400.00 Iter/sec)
  First LP Time    :       0.01
  Final Dual Bound : +6.00285654977609e-03
  Final Root Iters :       3434
Solution           :
  Solutions found  :        100 (1 improvements)
  First Solution   : +6.17620818000097e-04   (in run 1, after 1 nodes, 0.47 seconds, depth 0, found by <SpaGreedy>)
  Gap First Sol.   :   infinite
  Gap Last Sol.    :   infinite
  Primal Bound     : +6.17620818000097e-04   (in run 1, after 1 nodes, 0.47 seconds, depth 0, found by <SpaGreedy>)
  Dual Bound       : +1.72745502750549e-03
  Gap              :     179.70 %
  Avg. Gap         :      91.71 % (3654.55 primal-dual integral)
